
Gurobi 8.1.1 (linux64, Python) logging started Sat Aug  3 19:35:56 2019


Gurobi 8.1.1 (linux64, Python) logging started Sat Aug  3 19:41:29 2019


Gurobi 8.1.1 (win64, Python) logging started 08/22/19 17:40:51


Gurobi 8.1.1 (win64, Python) logging started 08/22/19 17:41:33

Academic license - for non-commercial use only
